Máquinas: 30
Tarefas: 150

Datas de Entrega:
2429
1650
1258
1695
2242
995
1876
865
1375
1199
1613
2043
2365
1932
2020
1718
1413
1487
2169
2387
1257
2421
932
1584
1358
2112
2181
2250
2218
1977
2368
1117
1899
904
872
2140
2138
2340
1966
2248
1562
1352
1687
1739
1772
2338
1568
1059
1468
1055
2383
1089
1031
1251
1783
1049
1056
951
1558
2366
2505
1942
2022
1423
2069
1802
1470
2534
1006
1113
2497
927
1019
2182
2032
2034
1308
1539
1384
1928
1497
2380
1628
1540
2221
1698
2306
1118
2422
2160
2099
1812
1886
977
1218
954
2475
1008
1036
1897
930
1362
1963
1652
2541
1396
1167
2425
1417
2025
905
2439
902
1001
1014
1832
1685
1410
1860
2493
2215
1799
1233
924
1370
1405
1585
2517
2501
1863
2237
2377
1820
1726
2324
1847
1521
2036
2122
2403
2156
1605
1323
1898
1296
1008
2325
1995
1119
2012

Tempos de Processamento:
58 38 82 57 60 61 96 56 39 45 3 78 15 36 81 10 10 97 73 15 84 59 6 6 95 68 4 5 89 45 46 64 24 47 23 25 62 52 7 56 94 9 8 84 68 72 33 98 67 90 80 62 52 62 92 14 30 38 18 28 79 33 27 37 7 33 99 9 99 30 55 62 50 97 92 22 14 3 9 35 51 15 35 33 67 69 58 48 15 48 54 72 68 77 46 56 30 14 52 69 22 86 84 66 18 11 61 45 20 92 49 73 1 60 60 98 65 84 36 2 17 28 7 72 72 96 99 12 13 38 38 99 36 99 14 64 47 5 61 37 13 21 6 78 37 44 40 83 60 3 
3 92 50 94 79 98 71 9 27 25 79 93 13 54 95 6 5 35 7 19 75 9 25 24 81 97 63 10 39 93 71 36 29 7 33 21 18 12 58 81 49 91 91 44 92 25 62 76 72 18 93 84 64 82 18 50 85 11 95 63 62 25 43 13 72 3 81 78 20 91 17 67 60 84 88 5 95 26 94 81 39 61 22 19 25 33 33 83 85 5 2 91 52 2 17 62 65 37 60 34 1 74 31 53 76 30 24 95 33 74 54 41 94 64 96 13 96 17 9 6 73 6 57 10 97 57 23 76 29 62 100 66 79 24 98 95 87 33 43 38 45 79 63 40 70 36 36 64 80 31 
10 83 45 43 34 25 71 32 3 88 18 25 98 74 29 12 9 16 40 66 95 40 26 69 1 84 93 85 5 64 35 17 58 88 8 75 47 4 36 8 81 65 80 49 67 93 85 54 81 58 96 23 45 18 53 10 50 36 67 23 19 100 14 86 98 85 56 46 42 15 73 85 28 50 72 75 95 40 68 69 95 15 42 21 92 62 12 19 29 25 94 12 58 75 38 24 55 88 8 68 97 87 50 20 93 4 91 99 62 68 79 21 56 24 100 100 72 1 96 21 67 20 39 77 43 39 46 96 39 29 34 94 10 75 100 89 47 33 61 5 64 13 40 51 48 41 62 56 50 72 
50 67 88 22 25 61 71 26 63 53 81 28 56 7 7 53 97 90 57 63 40 6 93 70 11 36 77 34 69 1 22 89 56 97 80 97 82 39 3 20 93 43 70 66 13 31 22 19 62 57 63 7 23 47 14 14 71 56 81 62 71 80 22 19 42 90 54 82 30 51 13 0 0 0 0 0 0 0 0 0 0 0 0 0 0 0 0 0 0 0 0 0 0 0 0 0 0 0 0 0 0 0 0 0 0 0 0 0 0 0 0 0 0 0 0 0 0 0 0 0 0 0 0 0 0 0 0 0 0 0 0 0 0 0 0 0 0 0 0 0 0 0 0 0 0 0 0 0 0 0 
0 0 0 0 0 0 0 0 0 0 0 0 0 0 0 0 0 0 0 0 0 0 0 0 0 0 0 0 0 0 0 0 0 0 0 0 0 0 0 0 0 0 0 0 0 0 0 0 0 0 0 0 0 0 0 0 0 0 0 0 0 0 0 0 0 0 0 0 0 0 0 0 0 0 0 0 0 0 0 0 0 0 0 0 0 0 0 0 0 0 0 0 0 0 0 0 0 0 0 0 0 0 0 0 0 0 0 0 0 0 0 0 0 0 0 0 0 0 0 0 0 0 0 0 0 0 0 0 0 0 0 0 0 0 0 0 0 0 0 0 0 0 0 0 0 0 0 0 0 0 
0 0 0 0 0 0 0 0 0 0 0 0 0 0 0 0 0 0 0 0 0 0 0 0 0 0 0 0 0 0 0 0 0 0 0 0 0 0 0 0 0 0 0 0 0 0 0 0 0 0 0 0 0 0 0 0 0 0 0 0 0 0 0 0 0 0 0 0 0 0 0 0 0 0 0 0 0 0 0 0 0 0 0 0 0 0 0 0 0 0 0 0 0 0 0 0 0 0 0 0 0 0 0 0 0 0 0 0 0 0 0 0 0 0 0 0 0 0 0 0 0 0 0 0 0 0 0 0 0 0 0 0 0 0 0 0 0 0 0 0 0 0 0 0 0 0 0 0 0 0 
0 0 0 0 0 0 0 0 0 0 0 0 0 0 0 0 0 0 0 0 0 0 0 0 0 0 0 0 0 0 0 0 0 0 0 0 0 0 0 0 0 0 0 0 0 0 0 0 0 0 0 0 0 0 0 0 0 0 0 0 0 0 0 0 0 0 0 0 0 0 0 0 0 0 0 0 0 0 0 0 0 0 0 0 0 0 0 0 0 0 0 0 0 0 0 0 0 0 0 0 0 0 0 0 0 0 0 0 0 0 0 0 0 0 0 0 0 0 0 0 0 0 0 0 0 0 0 0 0 0 0 0 0 0 0 0 0 0 0 0 0 0 0 0 0 0 0 0 0 0 
0 0 0 0 0 0 0 0 0 0 0 0 0 0 0 0 0 0 0 0 0 0 0 0 0 0 0 0 0 0 0 0 0 0 0 0 0 0 0 0 0 0 0 0 0 0 0 0 0 0 0 0 0 0 0 0 0 0 0 0 0 0 0 0 0 0 0 0 0 0 0 0 0 0 0 0 0 0 0 0 0 0 0 0 0 0 0 0 0 0 0 0 0 0 0 0 0 0 0 0 0 0 0 0 0 0 0 0 0 0 0 0 0 0 0 0 0 0 0 0 0 0 0 0 0 0 0 0 0 0 0 0 0 0 0 0 0 0 0 0 0 0 0 0 0 0 0 0 0 0 
0 0 0 0 0 0 0 0 0 0 0 0 0 0 0 0 0 0 0 0 0 0 0 0 0 0 0 0 0 0 0 0 0 0 0 0 0 0 0 0 0 0 0 0 0 0 0 0 0 0 0 0 0 0 0 0 0 0 0 0 0 0 0 0 0 0 0 0 0 0 0 0 0 0 0 0 0 0 0 0 0 0 0 0 0 0 0 0 0 0 0 0 0 0 0 0 0 0 0 0 0 0 0 0 0 0 0 0 0 0 0 0 0 0 0 0 0 0 0 0 0 0 0 0 0 0 0 0 0 0 0 0 0 0 0 0 0 0 0 0 0 0 0 0 0 0 0 0 0 0 
0 0 0 0 0 0 0 0 0 0 0 0 0 0 0 0 0 0 0 0 0 0 0 0 0 0 0 0 0 0 0 0 0 0 0 0 0 0 0 0 0 0 0 0 0 0 0 0 0 0 0 0 0 0 0 0 0 0 0 0 0 0 0 0 0 0 0 0 0 0 0 0 0 0 0 0 0 0 0 0 0 0 0 0 0 0 0 0 0 0 0 0 0 0 0 0 0 0 0 0 0 0 0 0 0 0 0 0 0 0 0 0 0 0 0 0 0 0 0 0 0 0 0 0 0 0 0 0 0 0 0 0 0 0 0 0 0 0 0 0 0 0 0 0 0 0 0 0 0 0 
0 0 0 0 0 0 0 0 0 0 0 0 0 0 0 0 0 0 0 0 0 0 0 0 0 0 0 0 0 0 0 0 0 0 0 0 0 0 0 0 0 0 0 0 0 0 0 0 0 0 0 0 0 0 0 0 0 0 0 0 0 0 0 0 0 0 0 0 0 0 0 0 0 0 0 0 0 0 0 0 0 0 0 0 0 0 0 0 0 0 0 0 0 0 0 0 0 0 0 0 0 0 0 0 0 0 0 0 0 0 0 0 0 0 0 0 0 0 0 0 0 0 0 0 0 0 0 0 0 0 0 0 0 0 0 0 0 0 0 0 0 0 0 0 0 0 0 0 0 0 
0 0 0 0 0 0 0 0 0 0 0 0 0 0 0 0 0 0 0 0 0 0 0 0 0 0 0 0 0 0 0 0 0 0 0 0 0 0 0 0 0 0 0 0 0 0 0 0 0 0 0 0 0 0 0 0 0 0 0 0 0 0 0 0 0 0 0 0 0 0 0 0 0 0 0 0 0 0 0 0 0 0 0 0 0 0 0 0 0 0 0 0 0 0 0 0 0 0 0 0 0 0 0 0 0 0 0 0 0 0 0 0 0 0 0 0 0 0 0 0 0 0 0 0 0 0 0 0 0 0 0 0 0 0 0 0 0 0 0 0 0 0 0 0 0 0 0 0 0 0 
0 0 0 0 0 0 0 0 0 0 0 0 0 0 0 0 0 0 0 0 0 0 0 0 0 0 0 0 0 0 0 0 0 0 0 0 0 0 0 0 0 0 0 0 0 0 0 0 0 0 0 0 0 0 0 0 0 0 0 0 0 0 0 0 0 0 0 0 0 0 0 0 0 0 0 0 0 0 0 0 0 0 0 0 0 0 0 0 0 0 0 0 0 0 0 0 0 0 0 0 0 0 0 0 0 0 0 0 0 0 0 0 0 0 0 0 0 0 0 0 0 0 0 0 0 0 0 0 0 0 0 0 0 0 0 0 0 0 0 0 0 0 0 0 0 0 0 0 0 0 
0 0 0 0 0 0 0 0 0 0 0 0 0 0 0 0 0 0 0 0 0 0 0 0 0 0 0 0 0 0 0 0 0 0 0 0 0 0 0 0 0 0 0 0 0 0 0 0 0 0 0 0 0 0 0 0 0 0 0 0 0 0 0 0 0 0 0 0 0 0 0 0 0 0 0 0 0 0 0 0 0 0 0 0 0 0 0 0 0 0 0 0 0 0 0 0 0 0 0 0 0 0 0 0 0 0 0 0 0 0 0 0 0 0 0 0 0 0 0 0 0 0 0 0 0 0 0 0 0 0 0 0 0 0 0 0 0 0 0 0 0 0 0 0 0 0 0 0 0 0 
0 0 0 0 0 0 0 0 0 0 0 0 0 0 0 0 0 0 0 0 0 0 0 0 0 0 0 0 0 0 0 0 0 0 0 0 0 0 0 0 0 0 0 0 0 0 0 0 0 0 0 0 0 0 0 0 0 0 0 0 0 0 0 0 0 0 0 0 0 0 0 0 0 0 0 0 0 0 0 0 0 0 0 0 0 0 0 0 0 0 0 0 0 0 0 0 0 0 0 0 0 0 0 0 0 0 0 0 0 0 0 0 0 0 0 0 0 0 0 0 0 0 0 0 0 0 0 0 0 0 0 0 0 0 0 0 0 0 0 0 0 0 0 0 0 0 0 0 0 0 
0 0 0 0 0 0 0 0 0 0 0 0 0 0 0 0 0 0 0 0 0 0 0 0 0 0 0 0 0 0 0 0 0 0 0 0 0 0 0 0 0 0 0 0 0 0 0 0 0 0 0 0 0 0 0 0 0 0 0 0 0 0 0 0 0 0 0 0 0 0 0 0 0 0 0 0 0 0 0 0 0 0 0 0 0 0 0 0 0 0 0 0 0 0 0 0 0 0 0 0 0 0 0 0 0 0 0 0 0 0 0 0 0 0 0 0 0 0 0 0 0 0 0 0 0 0 0 0 0 0 0 0 0 0 0 0 0 0 0 0 0 0 0 0 0 0 0 0 0 0 
0 0 0 0 0 0 0 0 0 0 0 0 0 0 0 0 0 0 0 0 0 0 0 0 0 0 0 0 0 0 0 0 0 0 0 0 0 0 0 0 0 0 0 0 0 0 0 0 0 0 0 0 0 0 0 0 0 0 0 0 0 0 0 0 0 0 0 0 0 0 0 0 0 0 0 0 0 0 0 0 0 0 0 0 0 0 0 0 0 0 0 0 0 0 0 0 0 0 0 0 0 0 0 0 0 0 0 0 0 0 0 0 0 0 0 0 0 0 0 0 0 0 0 0 0 0 0 0 0 0 0 0 0 0 0 0 0 0 0 0 0 0 0 0 0 0 0 0 0 0 
0 0 0 0 0 0 0 0 0 0 0 0 0 0 0 0 0 0 0 0 0 0 0 0 0 0 0 0 0 0 0 0 0 0 0 0 0 0 0 0 0 0 0 0 0 0 0 0 0 0 0 0 0 0 0 0 0 0 0 0 0 0 0 0 0 0 0 0 0 0 0 0 0 0 0 0 0 0 0 0 0 0 0 0 0 0 0 0 0 0 0 0 0 0 0 0 0 0 0 0 0 0 0 0 0 0 0 0 0 0 0 0 0 0 0 0 0 0 0 0 0 0 0 0 0 0 0 0 0 0 0 0 0 0 0 0 0 0 0 0 0 0 0 0 0 0 0 0 0 0 
0 0 0 0 0 0 0 0 0 0 0 0 0 0 0 0 0 0 0 0 0 0 0 0 0 0 0 0 0 0 0 0 0 0 0 0 0 0 0 0 0 0 0 0 0 0 0 0 0 0 0 0 0 0 0 0 0 0 0 0 0 0 0 0 0 0 0 0 0 0 0 0 0 0 0 0 0 0 0 0 0 0 0 0 0 0 0 0 0 0 0 0 0 0 0 0 0 0 0 0 0 0 0 0 0 0 0 0 0 0 0 0 0 0 0 0 0 0 0 0 0 0 0 0 0 0 0 0 0 0 0 0 0 0 0 0 0 0 0 0 0 0 0 0 0 0 0 0 0 0 
0 0 0 0 0 0 0 0 0 0 0 0 0 0 0 0 0 0 0 0 0 0 0 0 0 0 0 0 0 0 0 0 0 0 0 0 0 0 0 0 0 0 0 0 0 0 0 0 0 0 0 0 0 0 0 0 0 0 0 0 0 0 0 0 0 0 0 0 0 0 0 0 0 0 0 0 0 0 0 0 0 0 0 0 0 0 0 0 0 0 0 0 0 0 0 0 0 0 0 0 0 0 0 0 0 0 0 0 0 0 0 0 0 0 0 0 0 0 0 0 0 0 0 0 0 0 0 0 0 0 0 0 0 0 0 0 0 0 0 0 0 0 0 0 0 0 0 0 0 0 
0 0 0 0 0 0 0 0 0 0 0 0 0 0 0 0 0 0 0 0 0 0 0 0 0 0 0 0 0 0 0 0 0 0 0 0 0 0 0 0 0 0 0 0 0 0 0 0 0 0 0 0 0 0 0 0 0 0 0 0 0 0 0 0 0 0 0 0 0 0 0 0 0 0 0 0 0 0 0 0 0 0 0 0 0 0 0 0 0 0 0 0 0 0 0 0 0 0 0 0 0 0 0 0 0 0 0 0 0 0 0 0 0 0 0 0 0 0 0 0 0 0 0 0 0 0 0 0 0 0 0 0 0 0 0 0 0 0 0 0 0 0 0 0 0 0 0 0 0 0 
0 0 0 0 0 0 0 0 0 0 0 0 0 0 0 0 0 0 0 0 0 0 0 0 0 0 0 0 0 0 0 0 0 0 0 0 0 0 0 0 0 0 0 0 0 0 0 0 0 0 0 0 0 0 0 0 0 0 0 0 0 0 0 0 0 0 0 0 0 0 0 0 0 0 0 0 0 0 0 0 0 0 0 0 0 0 0 0 0 0 0 0 0 0 0 0 0 0 0 0 0 0 0 0 0 0 0 0 0 0 0 0 0 0 0 0 0 0 0 0 0 0 0 0 0 0 0 0 0 0 0 0 0 0 0 0 0 0 0 0 0 0 0 0 0 0 0 0 0 0 
0 0 0 0 0 0 0 0 0 0 0 0 0 0 0 0 0 0 0 0 0 0 0 0 0 0 0 0 0 0 0 0 0 0 0 0 0 0 0 0 0 0 0 0 0 0 0 0 0 0 0 0 0 0 0 0 0 0 0 0 0 0 0 0 0 0 0 0 0 0 0 0 0 0 0 0 0 0 0 0 0 0 0 0 0 0 0 0 0 0 0 0 0 0 0 0 0 0 0 0 0 0 0 0 0 0 0 0 0 0 0 0 0 0 0 0 0 0 0 0 0 0 0 0 0 0 0 0 0 0 0 0 0 0 0 0 0 0 0 0 0 0 0 0 0 0 0 0 0 0 
0 0 0 0 0 0 0 0 0 0 0 0 0 0 0 0 0 0 0 0 0 0 0 0 0 0 0 0 0 0 0 0 0 0 0 0 0 0 0 0 0 0 0 0 0 0 0 0 0 0 0 0 0 0 0 0 0 0 0 0 0 0 0 0 0 0 0 0 0 0 0 0 0 0 0 0 0 0 0 0 0 0 0 0 0 0 0 0 0 0 0 0 0 0 0 0 0 0 0 0 0 0 0 0 0 0 0 0 0 0 0 0 0 0 0 0 0 0 0 0 0 0 0 0 0 0 0 0 0 0 0 0 0 0 0 0 0 0 0 0 0 0 0 0 0 0 0 0 0 0 
0 0 0 0 0 0 0 0 0 0 0 0 0 0 0 0 0 0 0 0 0 0 0 0 0 0 0 0 0 0 0 0 0 0 0 0 0 0 0 0 0 0 0 0 0 0 0 0 0 0 0 0 0 0 0 0 0 0 0 0 0 0 0 0 0 0 0 0 0 0 0 0 0 0 0 0 0 0 0 0 0 0 0 0 0 0 0 0 0 0 0 0 0 0 0 0 0 0 0 0 0 0 0 0 0 0 0 0 0 0 0 0 0 0 0 0 0 0 0 0 0 0 0 0 0 0 0 0 0 0 0 0 0 0 0 0 0 0 0 0 0 0 0 0 0 0 0 0 0 0 
0 0 0 0 0 0 0 0 0 0 0 0 0 0 0 0 0 0 0 0 0 0 0 0 0 0 0 0 0 0 0 0 0 0 0 0 0 0 0 0 0 0 0 0 0 0 0 0 0 0 0 0 0 0 0 0 0 0 0 0 0 0 0 0 0 0 0 0 0 0 0 0 0 0 0 0 0 0 0 0 0 0 0 0 0 0 0 0 0 0 0 0 0 0 0 0 0 0 0 0 0 0 0 0 0 0 0 0 0 0 0 0 0 0 0 0 0 0 0 0 0 0 0 0 0 0 0 0 0 0 0 0 0 0 0 0 0 0 0 0 0 0 0 0 0 0 0 0 0 0 
0 0 0 0 0 0 0 0 0 0 0 0 0 0 0 0 0 0 0 0 0 0 0 0 0 0 0 0 0 0 0 0 0 0 0 0 0 0 0 0 0 0 0 0 0 0 0 0 0 0 0 0 0 0 0 0 0 0 0 0 0 0 0 0 0 0 0 0 0 0 0 0 0 0 0 0 0 0 0 0 0 0 0 0 0 0 0 0 0 0 0 0 0 0 0 0 0 0 0 0 0 0 0 0 0 0 0 0 0 0 0 0 0 0 0 0 0 0 0 0 0 0 0 0 0 0 0 0 0 0 0 0 0 0 0 0 0 0 0 0 0 0 0 0 0 0 0 0 0 0 
0 0 0 0 0 0 0 0 0 0 0 0 0 0 0 0 0 0 0 0 0 0 0 0 0 0 0 0 0 0 0 0 0 0 0 0 0 0 0 0 0 0 0 0 0 0 0 0 0 0 0 0 0 0 0 0 0 0 0 0 0 0 0 0 0 0 0 0 0 0 0 0 0 0 0 0 0 0 0 0 0 0 0 0 0 0 0 0 0 0 0 0 0 0 0 0 0 0 0 0 0 0 0 0 0 0 0 0 0 0 0 0 0 0 0 0 0 0 0 0 0 0 0 0 0 0 0 0 0 0 0 0 0 0 0 0 0 0 0 0 0 0 0 0 0 0 0 0 0 0 
0 0 0 0 0 0 0 0 0 0 0 0 0 0 0 0 0 0 0 0 0 0 0 0 0 0 0 0 0 0 0 0 0 0 0 0 0 0 0 0 0 0 0 0 0 0 0 0 0 0 0 0 0 0 0 0 0 0 0 0 0 0 0 0 0 0 0 0 0 0 0 0 0 0 0 0 0 0 0 0 0 0 0 0 0 0 0 0 0 0 0 0 0 0 0 0 0 0 0 0 0 0 0 0 0 0 0 0 0 0 0 0 0 0 0 0 0 0 0 0 0 0 0 0 0 0 0 0 0 0 0 0 0 0 0 0 0 0 0 0 0 0 0 0 0 0 0 0 0 0 
0 0 0 0 0 0 0 0 0 0 0 0 0 0 0 0 0 0 0 0 0 0 0 0 0 0 0 0 0 0 0 0 0 0 0 0 0 0 0 0 0 0 0 0 0 0 0 0 0 0 0 0 0 0 0 0 0 0 0 0 0 0 0 0 0 0 0 0 0 0 0 0 0 0 0 0 0 0 0 0 0 0 0 0 0 0 0 0 0 0 0 0 0 0 0 0 0 0 0 0 0 0 0 0 0 0 0 0 0 0 0 0 0 0 0 0 0 0 0 0 0 0 0 0 0 0 0 0 0 0 0 0 0 0 0 0 0 0 0 0 0 0 0 0 0 0 0 0 0 0 

Ordenação por dueDates - Solução Inicial:
(34, 113.473)
(115, 118.828)
(6, 121.837)
(21, 128.265)
(48, 128.623)
(72, 129.953)
(57, 134.237)
(50, 141.928)
(3, 142.415)
(41, 147.823)
(111, 149.176)
(67, 152.069)
(49, 156.17)
(69, 158.01)
(32, 162.67)
(102, 165.425)
(53, 168.098)
(10, 170.474)
(124, 174.34)
(149, 176.684)
(2, 176.786)
(70, 178.556)
(59, 179.08)
(113, 179.205)
(54, 179.569)
(35, 181.667)
(7, 182.136)
(52, 185.625)
(23, 186.4)
(18, 187.437)
(94, 190.325)
(77, 192.353)
(125, 193.868)
(42, 195)
(107, 198.92)
(96, 201.549)
(58, 202.34)
(114, 202.905)
(43, 203.253)
(8, 210.976)
(44, 214.691)
(51, 215.331)
(25, 216.702)
(117, 216.953)
(98, 217.554)
(126, 219.531)
(45, 221.5)
(73, 221.522)
(26, 222.316)
(136, 223.427)
(88, 223.6)
(101, 232.5)
(47, 232.871)
(4, 235.417)
(75, 241.905)
(81, 242.757)
(79, 242.807)
(62, 244.79)
(146, 249.917)
(145, 250.839)
(137, 252.099)
(66, 256.209)
(99, 259)
(110, 259.615)
(116, 260.474)
(134, 261.515)
(11, 267.348)
(12, 273.616)
(132, 275.328)
(64, 275.419)
(27, 276.076)
(24, 281.183)
(127, 283.036)
(74, 283.377)
(65, 283.425)
(15, 285.849)
(30, 292.167)
(36, 294.495)
(148, 294.828)
(55, 302.203)
(108, 304.393)
(37, 306.89)
(86, 310.61)
(92, 310.629)
(9, 312.5)
(80, 312.649)
(46, 317.376)
(93, 317.865)
(61, 325.325)
(135, 328.868)
(29, 329.406)
(100, 332.807)
(144, 336.923)
(14, 338.947)
(5, 339.697)
(33, 341.138)
(17, 350.331)
(68, 353.581)
(104, 356.547)
(103, 356.909)
(56, 357.614)
(123, 359.126)
(95, 361.782)
(85, 362.12)
(143, 364.128)
(19, 367.627)
(109, 369.652)
(139, 385.818)
(13, 389.835)
(131, 390.174)
(119, 395.745)
(60, 403.295)
(105, 407.647)
(31, 408.276)
(40, 408.727)
(128, 410.38)
(118, 414.706)
(91, 419.8)
(121, 423.248)
(142, 426.106)
(130, 433.256)
(133, 436.8)
(20, 439.325)
(71, 474.114)
(83, 493.333)
(97, 495)
(28, 503.731)
(147, 505.435)
(141, 530.164)
(112, 542)
(89, 563.256)
(39, 567.115)
(150, 569.434)
(63, 572.264)
(76, 598.235)
(1, 602.231)
(84, 632.877)
(16, 636.296)
(22, 637.105)
(38, 656.075)
(78, 669.13)
(87, 671.65)
(82, 784.615)
(90, 830.769)
(138, 860.282)
(140, 901.125)
(129, 926.296)
(106, 930.667)
(122, 999.444)
(120, 2578.97)

Calculo do completion time:
47 54 142 239 239 239 239 239 239 239 239 239 239 239 239 239 239 239 239 239 239 239 239 239 239 239 239 239 239 239 
107 203 303 303 303 303 303 303 303 303 303 303 303 303 303 303 303 303 303 303 303 303 303 303 303 303 303 303 303 303 
168 301 328 389 389 389 389 389 389 389 389 389 389 389 389 389 389 389 389 389 389 389 389 389 389 389 389 389 389 389 
252 376 471 511 511 511 511 511 511 511 511 511 511 511 511 511 511 511 511 511 511 511 511 511 511 511 511 511 511 511 
350 452 525 544 544 544 544 544 544 544 544 544 544 544 544 544 544 544 544 544 544 544 544 544 544 544 544 544 544 544 
412 519 610 610 610 610 610 610 610 610 610 610 610 610 610 610 610 610 610 610 610 610 610 610 610 610 610 610 610 610 
442 604 660 731 731 731 731 731 731 731 731 731 731 731 731 731 731 731 731 731 731 731 731 731 731 731 731 731 731 731 
532 622 718 788 788 788 788 788 788 788 788 788 788 788 788 788 788 788 788 788 788 788 788 788 788 788 788 788 788 788 
614 672 763 876 876 876 876 876 876 876 876 876 876 876 876 876 876 876 876 876 876 876 876 876 876 876 876 876 876 876 
708 757 844 969 969 969 969 969 969 969 969 969 969 969 969 969 969 969 969 969 969 969 969 969 969 969 969 969 969 969 
757 811 923 969 969 969 969 969 969 969 969 969 969 969 969 969 969 969 969 969 969 969 969 969 969 969 969 969 969 969 
856 937 993 1047 1047 1047 1047 1047 1047 1047 1047 1047 1047 1047 1047 1047 1047 1047 1047 1047 1047 1047 1047 1047 1047 1047 1047 1047 1047 1047 
923 1009 1090 1152 1152 1152 1152 1152 1152 1152 1152 1152 1152 1152 1152 1152 1152 1152 1152 1152 1152 1152 1152 1152 1152 1152 1152 1152 1152 1152 
1022 1042 1132 1182 1182 1182 1182 1182 1182 1182 1182 1182 1182 1182 1182 1182 1182 1182 1182 1182 1182 1182 1182 1182 1182 1182 1182 1182 1182 1182 
1086 1122 1149 1271 1271 1271 1271 1271 1271 1271 1271 1271 1271 1271 1271 1271 1271 1271 1271 1271 1271 1271 1271 1271 1271 1271 1271 1271 1271 1271 
1172 1246 1333 1333 1333 1333 1333 1333 1333 1333 1333 1333 1333 1333 1333 1333 1333 1333 1333 1333 1333 1333 1333 1333 1333 1333 1333 1333 1333 1333 
1224 1310 1378 1401 1401 1401 1401 1401 1401 1401 1401 1401 1401 1401 1401 1401 1401 1401 1401 1401 1401 1401 1401 1401 1401 1401 1401 1401 1401 1401 
1269 1335 1466 1519 1519 1519 1519 1519 1519 1519 1519 1519 1519 1519 1519 1519 1519 1519 1519 1519 1519 1519 1519 1519 1519 1519 1519 1519 1519 1519 
1341 1351 1543 1543 1543 1543 1543 1543 1543 1543 1543 1543 1543 1543 1543 1543 1543 1543 1543 1543 1543 1543 1543 1543 1543 1543 1543 1543 1543 1543 
1401 1481 1593 1593 1593 1593 1593 1593 1593 1593 1593 1593 1593 1593 1593 1593 1593 1593 1593 1593 1593 1593 1593 1593 1593 1593 1593 1593 1593 1593 
1439 1573 1676 1743 1743 1743 1743 1743 1743 1743 1743 1743 1743 1743 1743 1743 1743 1743 1743 1743 1743 1743 1743 1743 1743 1743 1743 1743 1743 1743 
1469 1664 1691 1794 1794 1794 1794 1794 1794 1794 1794 1794 1794 1794 1794 1794 1794 1794 1794 1794 1794 1794 1794 1794 1794 1794 1794 1794 1794 1794 
1487 1759 1826 1907 1907 1907 1907 1907 1907 1907 1907 1907 1907 1907 1907 1907 1907 1907 1907 1907 1907 1907 1907 1907 1907 1907 1907 1907 1907 1907 
1488 1853 1909 1909 1909 1909 1909 1909 1909 1909 1909 1909 1909 1909 1909 1909 1909 1909 1909 1909 1909 1909 1909 1909 1909 1909 1909 1909 1909 1909 
1550 1935 1953 2000 2000 2000 2000 2000 2000 2000 2000 2000 2000 2000 2000 2000 2000 2000 2000 2000 2000 2000 2000 2000 2000 2000 2000 2000 2000 2000 
1573 1968 1976 2080 2080 2080 2080 2080 2080 2080 2080 2080 2080 2080 2080 2080 2080 2080 2080 2080 2080 2080 2080 2080 2080 2080 2080 2080 2080 2080 
1669 2039 2110 2181 2181 2181 2181 2181 2181 2181 2181 2181 2181 2181 2181 2181 2181 2181 2181 2181 2181 2181 2181 2181 2181 2181 2181 2181 2181 2181 
1731 2123 2146 2188 2188 2188 2188 2188 2188 2188 2188 2188 2188 2188 2188 2188 2188 2188 2188 2188 2188 2188 2188 2188 2188 2188 2188 2188 2188 2188 
1737 2148 2174 2281 2281 2281 2281 2281 2281 2281 2281 2281 2281 2281 2281 2281 2281 2281 2281 2281 2281 2281 2281 2281 2281 2281 2281 2281 2281 2281 
1834 2183 2199 2371 2371 2371 2371 2371 2371 2371 2371 2371 2371 2371 2371 2371 2371 2371 2371 2371 2371 2371 2371 2371 2371 2371 2371 2371 2371 2371 
1911 2185 2274 2371 2371 2371 2371 2371 2371 2371 2371 2371 2371 2371 2371 2371 2371 2371 2371 2371 2371 2371 2371 2371 2371 2371 2371 2371 2371 2371 
1925 2280 2375 2375 2375 2375 2375 2375 2375 2375 2375 2375 2375 2375 2375 2375 2375 2375 2375 2375 2375 2375 2375 2375 2375 2375 2375 2375 2375 2375 
1997 2377 2420 2420 2420 2420 2420 2420 2420 2420 2420 2420 2420 2420 2420 2420 2420 2420 2420 2420 2420 2420 2420 2420 2420 2420 2420 2420 2420 2420 
2006 2468 2533 2576 2576 2576 2576 2576 2576 2576 2576 2576 2576 2576 2576 2576 2576 2576 2576 2576 2576 2576 2576 2576 2576 2576 2576 2576 2576 2576 
2067 2492 2624 2624 2624 2624 2624 2624 2624 2624 2624 2624 2624 2624 2624 2624 2624 2624 2624 2624 2624 2624 2624 2624 2624 2624 2624 2624 2624 2624 
2123 2554 2648 2648 2648 2648 2648 2648 2648 2648 2648 2648 2648 2648 2648 2648 2648 2648 2648 2648 2648 2648 2648 2648 2648 2648 2648 2648 2648 2648 
2161 2565 2684 2740 2740 2740 2740 2740 2740 2740 2740 2740 2740 2740 2740 2740 2740 2740 2740 2740 2740 2740 2740 2740 2740 2740 2740 2740 2740 2740 
2221 2629 2708 2740 2740 2740 2740 2740 2740 2740 2740 2740 2740 2740 2740 2740 2740 2740 2740 2740 2740 2740 2740 2740 2740 2740 2740 2740 2740 2740 
2229 2720 2800 2870 2870 2870 2870 2870 2870 2870 2870 2870 2870 2870 2870 2870 2870 2870 2870 2870 2870 2870 2870 2870 2870 2870 2870 2870 2870 2870 
2285 2729 2832 2896 2896 2896 2896 2896 2896 2896 2896 2896 2896 2896 2896 2896 2896 2896 2896 2896 2896 2896 2896 2896 2896 2896 2896 2896 2896 2896 
2369 2773 2881 2962 2962 2962 2962 2962 2962 2962 2962 2962 2962 2962 2962 2962 2962 2962 2962 2962 2962 2962 2962 2962 2962 2962 2962 2962 2962 2962 
2449 2866 2977 3040 3040 3040 3040 3040 3040 3040 3040 3040 3040 3040 3040 3040 3040 3040 3040 3040 3040 3040 3040 3040 3040 3040 3040 3040 3040 3040 
2544 2947 2978 3051 3051 3051 3051 3051 3051 3051 3051 3051 3051 3051 3051 3051 3051 3051 3051 3051 3051 3051 3051 3051 3051 3051 3051 3051 3051 3051 
2609 3043 3115 3115 3115 3115 3115 3115 3115 3115 3115 3115 3115 3115 3115 3115 3115 3115 3115 3115 3115 3115 3115 3115 3115 3115 3115 3115 3115 3115 
2623 3080 3203 3203 3203 3203 3203 3203 3203 3203 3203 3203 3203 3203 3203 3203 3203 3203 3203 3203 3203 3203 3203 3203 3203 3203 3203 3203 3203 3203 
2719 3137 3242 3242 3242 3242 3242 3242 3242 3242 3242 3242 3242 3242 3242 3242 3242 3242 3242 3242 3242 3242 3242 3242 3242 3242 3242 3242 3242 3242 
2787 3229 3309 3322 3322 3322 3322 3322 3322 3322 3322 3322 3322 3322 3322 3322 3322 3322 3322 3322 3322 3322 3322 3322 3322 3322 3322 3322 3322 3322 
2837 3289 3337 3337 3337 3337 3337 3337 3337 3337 3337 3337 3337 3337 3337 3337 3337 3337 3337 3337 3337 3337 3337 3337 3337 3337 3337 3337 3337 3337 
2905 3386 3470 3506 3506 3506 3506 3506 3506 3506 3506 3506 3506 3506 3506 3506 3506 3506 3506 3506 3506 3506 3506 3506 3506 3506 3506 3506 3506 3506 
2969 3481 3570 3570 3570 3570 3570 3570 3570 3570 3570 3570 3570 3570 3570 3570 3570 3570 3570 3570 3570 3570 3570 3570 3570 3570 3570 3570 3570 3570 
3017 3564 3589 3589 3589 3589 3589 3589 3589 3589 3589 3589 3589 3589 3589 3589 3589 3589 3589 3589 3589 3589 3589 3589 3589 3589 3589 3589 3589 3589 
3039 3565 3686 3686 3686 3686 3686 3686 3686 3686 3686 3686 3686 3686 3686 3686 3686 3686 3686 3686 3686 3686 3686 3686 3686 3686 3686 3686 3686 3686 
3072 3627 3771 3793 3793 3793 3793 3793 3793 3793 3793 3793 3793 3793 3793 3793 3793 3793 3793 3793 3793 3793 3793 3793 3793 3793 3793 3793 3793 3793 
3129 3721 3814 3836 3836 3836 3836 3836 3836 3836 3836 3836 3836 3836 3836 3836 3836 3836 3836 3836 3836 3836 3836 3836 3836 3836 3836 3836 3836 3836 
3221 3809 3886 3886 3886 3886 3886 3886 3886 3886 3886 3886 3886 3886 3886 3886 3886 3886 3886 3886 3886 3886 3886 3886 3886 3886 3886 3886 3886 3886 
3272 3848 3981 3981 3981 3981 3981 3981 3981 3981 3981 3981 3981 3981 3981 3981 3981 3981 3981 3981 3981 3981 3981 3981 3981 3981 3981 3981 3981 3981 
3281 3942 4049 4049 4049 4049 4049 4049 4049 4049 4049 4049 4049 4049 4049 4049 4049 4049 4049 4049 4049 4049 4049 4049 4049 4049 4049 4049 4049 4049 
3314 3967 4149 4229 4229 4229 4229 4229 4229 4229 4229 4229 4229 4229 4229 4229 4229 4229 4229 4229 4229 4229 4229 4229 4229 4229 4229 4229 4229 4229 
3358 4003 4190 4229 4229 4229 4229 4229 4229 4229 4229 4229 4229 4229 4229 4229 4229 4229 4229 4229 4229 4229 4229 4229 4229 4229 4229 4229 4229 4229 
3395 4073 4238 4238 4238 4238 4238 4238 4238 4238 4238 4238 4238 4238 4238 4238 4238 4238 4238 4238 4238 4238 4238 4238 4238 4238 4238 4238 4238 4238 
3442 4160 4285 4285 4285 4285 4285 4285 4285 4285 4285 4285 4285 4285 4285 4285 4285 4285 4285 4285 4285 4285 4285 4285 4285 4285 4285 4285 4285 4285 
3475 4163 4370 4460 4460 4460 4460 4460 4460 4460 4460 4460 4460 4460 4460 4460 4460 4460 4460 4460 4460 4460 4460 4460 4460 4460 4460 4460 4460 4460 
3527 4223 4378 4460 4460 4460 4460 4460 4460 4460 4460 4460 4460 4460 4460 4460 4460 4460 4460 4460 4460 4460 4460 4460 4460 4460 4460 4460 4460 4460 
3619 4297 4446 4460 4460 4460 4460 4460 4460 4460 4460 4460 4460 4460 4460 4460 4460 4460 4460 4460 4460 4460 4460 4460 4460 4460 4460 4460 4460 4460 
3717 4310 4546 4546 4546 4546 4546 4546 4546 4546 4546 4546 4546 4546 4546 4546 4546 4546 4546 4546 4546 4546 4546 4546 4546 4546 4546 4546 4546 4546 
3816 4334 4621 4621 4621 4621 4621 4621 4621 4621 4621 4621 4621 4621 4621 4621 4621 4621 4621 4621 4621 4621 4621 4621 4621 4621 4621 4621 4621 4621 
3819 4413 4639 4720 4720 4720 4720 4720 4720 4720 4720 4720 4720 4720 4720 4720 4720 4720 4720 4720 4720 4720 4720 4720 4720 4720 4720 4720 4720 4720 
3897 4506 4664 4748 4748 4748 4748 4748 4748 4748 4748 4748 4748 4748 4748 4748 4748 4748 4748 4748 4748 4748 4748 4748 4748 4748 4748 4748 4748 4748 
3996 4572 4758 4758 4758 4758 4758 4758 4758 4758 4758 4758 4758 4758 4758 4758 4758 4758 4758 4758 4758 4758 4758 4758 4758 4758 4758 4758 4758 4758 
4033 4585 4844 4863 4863 4863 4863 4863 4863 4863 4863 4863 4863 4863 4863 4863 4863 4863 4863 4863 4863 4863 4863 4863 4863 4863 4863 4863 4863 4863 
4037 4648 4937 5014 5014 5014 5014 5014 5014 5014 5014 5014 5014 5014 5014 5014 5014 5014 5014 5014 5014 5014 5014 5014 5014 5014 5014 5014 5014 5014 
4043 4672 5006 5084 5084 5084 5084 5084 5084 5084 5084 5084 5084 5084 5084 5084 5084 5084 5084 5084 5084 5084 5084 5084 5084 5084 5084 5084 5084 5084 
4142 4695 5052 5084 5084 5084 5084 5084 5084 5084 5084 5084 5084 5084 5084 5084 5084 5084 5084 5084 5084 5084 5084 5084 5084 5084 5084 5084 5084 5084 
4239 4779 5102 5102 5102 5102 5102 5102 5102 5102 5102 5102 5102 5102 5102 5102 5102 5102 5102 5102 5102 5102 5102 5102 5102 5102 5102 5102 5102 5102 
4246 4851 5200 5242 5242 5242 5242 5242 5242 5242 5242 5242 5242 5242 5242 5242 5242 5242 5242 5242 5242 5242 5242 5242 5242 5242 5242 5242 5242 5242 
4327 4946 5229 5249 5249 5249 5249 5249 5249 5249 5249 5249 5249 5249 5249 5249 5249 5249 5249 5249 5249 5249 5249 5249 5249 5249 5249 5249 5249 5249 
4372 5039 5293 5294 5294 5294 5294 5294 5294 5294 5294 5294 5294 5294 5294 5294 5294 5294 5294 5294 5294 5294 5294 5294 5294 5294 5294 5294 5294 5294 
4397 5060 5368 5465 5465 5465 5465 5465 5465 5465 5465 5465 5465 5465 5465 5465 5465 5465 5465 5465 5465 5465 5465 5465 5465 5465 5465 5465 5465 5465 
4480 5124 5424 5465 5465 5465 5465 5465 5465 5465 5465 5465 5465 5465 5465 5465 5465 5465 5465 5465 5465 5465 5465 5465 5465 5465 5465 5465 5465 5465 
4572 5142 5477 5491 5491 5491 5491 5491 5491 5491 5491 5491 5491 5491 5491 5491 5491 5491 5491 5491 5491 5491 5491 5491 5491 5491 5491 5491 5491 5491 
4617 5237 5576 5576 5576 5576 5576 5576 5576 5576 5576 5576 5576 5576 5576 5576 5576 5576 5576 5576 5576 5576 5576 5576 5576 5576 5576 5576 5576 5576 
4679 5255 5623 5705 5705 5705 5705 5705 5705 5705 5705 5705 5705 5705 5705 5705 5705 5705 5705 5705 5705 5705 5705 5705 5705 5705 5705 5705 5705 5705 
4748 5288 5685 5705 5705 5705 5705 5705 5705 5705 5705 5705 5705 5705 5705 5705 5705 5705 5705 5705 5705 5705 5705 5705 5705 5705 5705 5705 5705 5705 
4820 5379 5697 5705 5705 5705 5705 5705 5705 5705 5705 5705 5705 5705 5705 5705 5705 5705 5705 5705 5705 5705 5705 5705 5705 5705 5705 5705 5705 5705 
4859 5406 5700 5768 5768 5768 5768 5768 5768 5768 5768 5768 5768 5768 5768 5768 5768 5768 5768 5768 5768 5768 5768 5768 5768 5768 5768 5768 5768 5768 
4894 5487 5769 5769 5769 5769 5769 5769 5769 5769 5769 5769 5769 5769 5769 5769 5769 5769 5769 5769 5769 5769 5769 5769 5769 5769 5769 5769 5769 5769 
4966 5512 5862 5893 5893 5893 5893 5893 5893 5893 5893 5893 5893 5893 5893 5893 5893 5893 5893 5893 5893 5893 5893 5893 5893 5893 5893 5893 5893 5893 
5034 5564 5920 5920 5920 5920 5920 5920 5920 5920 5920 5920 5920 5920 5920 5920 5920 5920 5920 5920 5920 5920 5920 5920 5920 5920 5920 5920 5920 5920 
5113 5626 5939 6010 6010 6010 6010 6010 6010 6010 6010 6010 6010 6010 6010 6010 6010 6010 6010 6010 6010 6010 6010 6010 6010 6010 6010 6010 6010 6010 
5127 5724 6039 6039 6039 6039 6039 6039 6039 6039 6039 6039 6039 6039 6039 6039 6039 6039 6039 6039 6039 6039 6039 6039 6039 6039 6039 6039 6039 6039 
5216 5763 6044 6113 6113 6113 6113 6113 6113 6113 6113 6113 6113 6113 6113 6113 6113 6113 6113 6113 6113 6113 6113 6113 6113 6113 6113 6113 6113 6113 
5285 5797 6112 6113 6113 6113 6113 6113 6113 6113 6113 6113 6113 6113 6113 6113 6113 6113 6113 6113 6113 6113 6113 6113 6113 6113 6113 6113 6113 6113 
5363 5837 6163 6163 6163 6163 6163 6163 6163 6163 6163 6163 6163 6163 6163 6163 6163 6163 6163 6163 6163 6163 6163 6163 6163 6163 6163 6163 6163 6163 
5399 5891 6237 6244 6244 6244 6244 6244 6244 6244 6244 6244 6244 6244 6244 6244 6244 6244 6244 6244 6244 6244 6244 6244 6244 6244 6244 6244 6244 6244 
5459 5970 6271 6296 6296 6296 6296 6296 6296 6296 6296 6296 6296 6296 6296 6296 6296 6296 6296 6296 6296 6296 6296 6296 6296 6296 6296 6296 6296 6296 
5483 5999 6329 6385 6385 6385 6385 6385 6385 6385 6385 6385 6385 6385 6385 6385 6385 6385 6385 6385 6385 6385 6385 6385 6385 6385 6385 6385 6385 6385 
5493 6004 6338 6482 6482 6482 6482 6482 6482 6482 6482 6482 6482 6482 6482 6482 6482 6482 6482 6482 6482 6482 6482 6482 6482 6482 6482 6482 6482 6482 
5502 6082 6384 6564 6564 6564 6564 6564 6564 6564 6564 6564 6564 6564 6564 6564 6564 6564 6564 6564 6564 6564 6564 6564 6564 6564 6564 6564 6564 6564 
5568 6135 6404 6564 6564 6564 6564 6564 6564 6564 6564 6564 6564 6564 6564 6564 6564 6564 6564 6564 6564 6564 6564 6564 6564 6564 6564 6564 6564 6564 
5652 6166 6454 6564 6564 6564 6564 6564 6564 6564 6564 6564 6564 6564 6564 6564 6564 6564 6564 6564 6564 6564 6564 6564 6564 6564 6564 6564 6564 6564 
5666 6216 6464 6578 6578 6578 6578 6578 6578 6578 6578 6578 6578 6578 6578 6578 6578 6578 6578 6578 6578 6578 6578 6578 6578 6578 6578 6578 6578 6578 
5673 6273 6503 6578 6578 6578 6578 6578 6578 6578 6578 6578 6578 6578 6578 6578 6578 6578 6578 6578 6578 6578 6578 6578 6578 6578 6578 6578 6578 6578 
5719 6290 6541 6578 6578 6578 6578 6578 6578 6578 6578 6578 6578 6578 6578 6578 6578 6578 6578 6578 6578 6578 6578 6578 6578 6578 6578 6578 6578 6578 
5786 6315 6633 6633 6633 6633 6633 6633 6633 6633 6633 6633 6633 6633 6633 6633 6633 6633 6633 6633 6633 6633 6633 6633 6633 6633 6633 6633 6633 6633 
5792 6378 6673 6673 6673 6673 6673 6673 6673 6673 6673 6673 6673 6673 6673 6673 6673 6673 6673 6673 6673 6673 6673 6673 6673 6673 6673 6673 6673 6673 
5865 6385 6713 6770 6770 6770 6770 6770 6770 6770 6770 6770 6770 6770 6770 6770 6770 6770 6770 6770 6770 6770 6770 6770 6770 6770 6770 6770 6770 6770 
5885 6418 6775 6775 6775 6775 6775 6775 6775 6775 6775 6775 6775 6775 6775 6775 6775 6775 6775 6775 6775 6775 6775 6775 6775 6775 6775 6775 6775 6775 
5946 6461 6836 6836 6836 6836 6836 6836 6836 6836 6836 6836 6836 6836 6836 6836 6836 6836 6836 6836 6836 6836 6836 6836 6836 6836 6836 6836 6836 6836 
5961 6474 6934 6990 6990 6990 6990 6990 6990 6990 6990 6990 6990 6990 6990 6990 6990 6990 6990 6990 6990 6990 6990 6990 6990 6990 6990 6990 6990 6990 
5999 6574 6968 6990 6990 6990 6990 6990 6990 6990 6990 6990 6990 6990 6990 6990 6990 6990 6990 6990 6990 6990 6990 6990 6990 6990 6990 6990 6990 6990 
6035 6583 7064 7064 7064 7064 7064 7064 7064 7064 7064 7064 7064 7064 7064 7064 7064 7064 7064 7064 7064 7064 7064 7064 7064 7064 7064 7064 7064 7064 
6063 6646 7087 7149 7149 7149 7149 7149 7149 7149 7149 7149 7149 7149 7149 7149 7149 7149 7149 7149 7149 7149 7149 7149 7149 7149 7149 7149 7149 7149 
6081 6722 7180 7180 7180 7180 7180 7180 7180 7180 7180 7180 7180 7180 7180 7180 7180 7180 7180 7180 7180 7180 7180 7180 7180 7180 7180 7180 7180 7180 
6127 6793 7215 7237 7237 7237 7237 7237 7237 7237 7237 7237 7237 7237 7237 7237 7237 7237 7237 7237 7237 7237 7237 7237 7237 7237 7237 7237 7237 7237 
6183 6874 7223 7257 7257 7257 7257 7257 7257 7257 7257 7257 7257 7257 7257 7257 7257 7257 7257 7257 7257 7257 7257 7257 7257 7257 7257 7257 7257 7257 
6195 6950 7319 7319 7319 7319 7319 7319 7319 7319 7319 7319 7319 7319 7319 7319 7319 7319 7319 7319 7319 7319 7319 7319 7319 7319 7319 7319 7319 7319 
6279 6967 7320 7320 7320 7320 7320 7320 7320 7320 7320 7320 7320 7320 7320 7320 7320 7320 7320 7320 7320 7320 7320 7320 7320 7320 7320 7320 7320 7320 
6333 6969 7414 7414 7414 7414 7414 7414 7414 7414 7414 7414 7414 7414 7414 7414 7414 7414 7414 7414 7414 7414 7414 7414 7414 7414 7414 7414 7414 7414 
6350 7042 7481 7481 7481 7481 7481 7481 7481 7481 7481 7481 7481 7481 7481 7481 7481 7481 7481 7481 7481 7481 7481 7481 7481 7481 7481 7481 7481 7481 
6371 7121 7494 7494 7494 7494 7494 7494 7494 7494 7494 7494 7494 7494 7494 7494 7494 7494 7494 7494 7494 7494 7494 7494 7494 7494 7494 7494 7494 7494 
6409 7183 7523 7523 7523 7523 7523 7523 7523 7523 7523 7523 7523 7523 7523 7523 7523 7523 7523 7523 7523 7523 7523 7523 7523 7523 7523 7523 7523 7523 
6445 7262 7533 7533 7533 7533 7533 7533 7533 7533 7533 7533 7533 7533 7533 7533 7533 7533 7533 7533 7533 7533 7533 7533 7533 7533 7533 7533 7533 7533 
6460 7281 7599 7662 7662 7662 7662 7662 7662 7662 7662 7662 7662 7662 7662 7662 7662 7662 7662 7662 7662 7662 7662 7662 7662 7662 7662 7662 7662 7662 
6515 7298 7672 7685 7685 7685 7685 7685 7685 7685 7685 7685 7685 7685 7685 7685 7685 7685 7685 7685 7685 7685 7685 7685 7685 7685 7685 7685 7685 7685 
6550 7320 7714 7714 7714 7714 7714 7714 7714 7714 7714 7714 7714 7714 7714 7714 7714 7714 7714 7714 7714 7714 7714 7714 7714 7714 7714 7714 7714 7714 
6580 7385 7769 7769 7769 7769 7769 7769 7769 7769 7769 7769 7769 7769 7769 7769 7769 7769 7769 7769 7769 7769 7769 7769 7769 7769 7769 7769 7769 7769 
6585 7395 7854 7888 7888 7888 7888 7888 7888 7888 7888 7888 7888 7888 7888 7888 7888 7888 7888 7888 7888 7888 7888 7888 7888 7888 7888 7888 7888 7888 
6625 7431 7916 7916 7916 7916 7916 7916 7916 7916 7916 7916 7916 7916 7916 7916 7916 7916 7916 7916 7916 7916 7916 7916 7916 7916 7916 7916 7916 7916 
6638 7476 7980 7980 7980 7980 7980 7980 7980 7980 7980 7980 7980 7980 7980 7980 7980 7980 7980 7980 7980 7980 7980 7980 7980 7980 7980 7980 7980 7980 
6711 7517 8001 8001 8001 8001 8001 8001 8001 8001 8001 8001 8001 8001 8001 8001 8001 8001 8001 8001 8001 8001 8001 8001 8001 8001 8001 8001 8001 8001 
6726 7602 8030 8030 8030 8030 8030 8030 8030 8030 8030 8030 8030 8030 8030 8030 8030 8030 8030 8030 8030 8030 8030 8030 8030 8030 8030 8030 8030 8030 
6733 7660 8066 8069 8069 8069 8069 8069 8069 8069 8069 8069 8069 8069 8069 8069 8069 8069 8069 8069 8069 8069 8069 8069 8069 8069 8069 8069 8069 8069 
6736 7691 8138 8138 8138 8138 8138 8138 8138 8138 8138 8138 8138 8138 8138 8138 8138 8138 8138 8138 8138 8138 8138 8138 8138 8138 8138 8138 8138 8138 
6763 7734 8152 8174 8174 8174 8174 8174 8174 8174 8174 8174 8174 8174 8174 8174 8174 8174 8174 8174 8174 8174 8174 8174 8174 8174 8174 8174 8174 8174 
6785 7739 8227 8227 8227 8227 8227 8227 8227 8227 8227 8227 8227 8227 8227 8227 8227 8227 8227 8227 8227 8227 8227 8227 8227 8227 8227 8227 8227 8227 
6843 7742 8237 8287 8287 8287 8287 8287 8287 8287 8287 8287 8287 8287 8287 8287 8287 8287 8287 8287 8287 8287 8287 8287 8287 8287 8287 8287 8287 8287 
6876 7761 8258 8287 8287 8287 8287 8287 8287 8287 8287 8287 8287 8287 8287 8287 8287 8287 8287 8287 8287 8287 8287 8287 8287 8287 8287 8287 8287 8287 
6886 7767 8270 8340 8340 8340 8340 8340 8340 8340 8340 8340 8340 8340 8340 8340 8340 8340 8340 8340 8340 8340 8340 8340 8340 8340 8340 8340 8340 8340 
6945 7776 8310 8346 8346 8346 8346 8346 8346 8346 8346 8346 8346 8346 8346 8346 8346 8346 8346 8346 8346 8346 8346 8346 8346 8346 8346 8346 8346 8346 
6997 7788 8314 8385 8385 8385 8385 8385 8385 8385 8385 8385 8385 8385 8385 8385 8385 8385 8385 8385 8385 8385 8385 8385 8385 8385 8385 8385 8385 8385 
7000 7814 8354 8385 8385 8385 8385 8385 8385 8385 8385 8385 8385 8385 8385 8385 8385 8385 8385 8385 8385 8385 8385 8385 8385 8385 8385 8385 8385 8385 
7058 7847 8366 8385 8385 8385 8385 8385 8385 8385 8385 8385 8385 8385 8385 8385 8385 8385 8385 8385 8385 8385 8385 8385 8385 8385 8385 8385 8385 8385 
7073 7908 8381 8385 8385 8385 8385 8385 8385 8385 8385 8385 8385 8385 8385 8385 8385 8385 8385 8385 8385 8385 8385 8385 8385 8385 8385 8385 8385 8385 
7121 7913 8406 8406 8406 8406 8406 8406 8406 8406 8406 8406 8406 8406 8406 8406 8406 8406 8406 8406 8406 8406 8406 8406 8406 8406 8406 8406 8406 8406 
7126 7946 8439 8439 8439 8439 8439 8439 8439 8439 8439 8439 8439 8439 8439 8439 8439 8439 8439 8439 8439 8439 8439 8439 8439 8439 8439 8439 8439 8439 
7163 7984 8444 8444 8444 8444 8444 8444 8444 8444 8444 8444 8444 8444 8444 8444 8444 8444 8444 8444 8444 8444 8444 8444 8444 8444 8444 8444 8444 8444 
7176 8013 8483 8483 8483 8483 8483 8483 8483 8483 8483 8483 8483 8483 8483 8483 8483 8483 8483 8483 8483 8483 8483 8483 8483 8483 8483 8483 8483 8483 
7187 8043 8487 8487 8487 8487 8487 8487 8487 8487 8487 8487 8487 8487 8487 8487 8487 8487 8487 8487 8487 8487 8487 8487 8487 8487 8487 8487 8487 8487 
7215 8049 8507 8507 8507 8507 8507 8507 8507 8507 8507 8507 8507 8507 8507 8507 8507 8507 8507 8507 8507 8507 8507 8507 8507 8507 8507 8507 8507 8507 
7217 8055 8528 8528 8528 8528 8528 8528 8528 8528 8528 8528 8528 8528 8528 8528 8528 8528 8528 8528 8528 8528 8528 8528 8528 8528 8528 8528 8528 8528 
Sequência de Tarefas - Solução Final
34 115 6 21 48 72 57 50 3 41 111 67 49 69 32 102 53 10 124 149 2 70 59 113 54 35 7 52 23 18 94 77 125 42 107 96 58 114 43 8 44 51 25 117 98 126 45 73 26 136 88 101 47 4 75 81 79 62 146 145 137 66 99 110 116 134 11 12 132 64 27 24 127 74 65 15 30 36 148 55 108 37 86 92 9 80 46 93 61 135 29 100 144 14 5 33 17 68 104 103 56 123 95 85 143 19 109 139 13 131 119 60 105 31 40 128 118 91 121 142 130 133 20 71 83 97 28 147 141 112 89 39 150 63 76 1 84 16 22 38 78 87 82 90 138 140 129 106 122 120 

Squencia que diminui o atraso Maximo:
Novo Atraso = 6010
85 28 57 70 131 55 26 86 146 54 142 22 105 121 38 109 60 144 46 76 69 102 18 14 79 41 50 43 59 42 140 61 129 87 53 5 147 9 123 52 150 58 119 17 99 114 77 137 39 90 36 141 10 126 27 127 30 65 108 103 29 62 107 138 49 106 3 96 32 15 67 47 8 111 4 6 1 125 48 81 78 75 23 91 100 118 128 134 101 74 116 56 25 136 135 7 31 112 73 71 143 64 35 66 124 130 133 63 33 93 132 16 110 34 139 37 104 149 113 94 51 40 68 82 122 72 83 88 44 120 13 148 92 21 97 117 2 115 80 84 11 12 98 45 145 95 20 89 24 19 

Squencia que diminui o atraso Maximo:
Novo Atraso = 5988
40 84 126 5 28 145 68 39 41 48 45 82 141 100 25 30 15 72 83 64 114 44 134 49 36 148 7 136 115 111 57 13 119 98 79 33 11 16 47 131 24 129 8 34 58 93 63 31 50 61 23 66 113 102 97 133 1 116 6 132 52 128 12 92 110 117 130 91 59 10 106 69 14 71 137 54 150 88 121 3 78 73 108 21 27 4 70 2 56 96 112 104 101 62 109 124 95 87 122 75 89 26 60 76 135 77 17 74 127 144 107 125 81 143 90 105 19 29 20 53 94 35 80 32 42 146 99 85 86 149 9 43 18 38 55 65 120 123 142 51 103 118 139 147 37 22 140 138 67 46 

Squencia que diminui o atraso Maximo:
Novo Atraso = 5574
113 2 3 70 54 19 144 30 22 14 97 11 137 147 119 41 135 49 45 124 132 53 121 62 109 35 101 118 134 89 9 74 52 42 104 111 141 143 33 146 78 63 115 100 38 29 40 96 5 76 20 8 77 114 32 46 127 133 65 68 60 23 91 64 27 122 88 67 139 4 31 61 107 140 16 26 36 75 80 6 10 50 55 130 82 51 66 44 149 39 94 150 148 116 117 103 102 86 37 73 25 15 126 112 95 7 81 108 84 69 123 83 92 99 59 145 56 34 1 87 79 18 47 142 120 57 98 28 93 21 110 43 106 48 129 125 131 71 136 90 138 85 128 13 58 72 17 12 24 105 
Atraso Máximo: 5574
Tempo: 0.049857 segundos
